NAME : cgl_107.5625.tour
COMMENT : Length = 5625
COMMENT : Found by LKH-3 [Keld Helsgaun] Fri Nov  8 17:38:22 2024
TYPE : TOUR
DIMENSION : 108
TOUR_SECTION
98
12
11
9
10
97
8
7
6
1
2
5
3
4
93
74
91
92
72
90
95
73
94
75
96
87
82
79
89
76
86
80
88
85
78
81
84
83
77
71
61
64
57
69
60
68
67
66
65
59
70
58
62
63
56
53
54
55
52
108
47
46
48
49
22
31
21
20
50
30
19
51
28
27
29
25
26
24
17
18
14
23
15
13
41
39
34
38
36
33
37
35
16
42
43
44
32
40
45
102
104
103
107
105
106
101
100
99
-1
EOF
